509.61,73.88,84.38
506.21,74.38,84.95
563.98,66.76,76.25
540.31,69.69,79.59
495.21,76.03,86.83
552.04,68.2,77.9
574.88,65.5,74.8
532.83,70.66,80.7
493.49,76.3,87.14
551.55,68.27,77.97
552.34,68.17,77.85
484.93,77.64,88.68
530.72,70.94,81.03
508.77,74.01,84.52
540.86,69.61,79.51
542.68,69.38,79.24
480.79,78.31,89.44
557.77,67.5,77.1
478.05,78.76,89.95
508.61,74.03,84.55
